NAME : local_9
TYPE : ATSP
DIMENSION : 28
EDGE_WEIGHT_TYPE : EXPLICIT
EDGE_WEIGHT_FORMAT : FULL_MATRIX
EDGE_WEIGHT_SECTION
0 10000000 10000000 10000000 676 10000000 684 10000000 10000000 577 931 906 10000000 10000000 637 781 517 10000000 10000000 819 10000000 10000000 10000000 10000000 698 10000000 10000000 10000000 
0 0 853 339 620 10000000 10000000 10000000 10000000 10000000 10000000 10000000 10000000 10000000 756 922 10000000 10000000 10000000 10000000 10000000 730 930 10000000 10000000 768 10000000 10000000 
0 853 0 902 10000000 651 10000000 10000000 806 10000000 10000000 10000000 10000000 10000000 10000000 10000000 10000000 10000000 10000000 10000000 406 385 10000000 821 10000000 10000000 10000000 10000000 
0 339 902 0 443 920 10000000 10000000 10000000 10000000 818 10000000 10000000 10000000 461 589 10000000 10000000 10000000 848 10000000 634 10000000 10000000 888 920 10000000 10000000 
0 620 10000000 443 0 10000000 742 10000000 10000000 834 873 10000000 10000000 10000000 289 553 890 10000000 10000000 786 10000000 971 880 10000000 760 796 10000000 918 
0 10000000 651 920 10000000 0 10000000 10000000 195 10000000 768 10000000 10000000 587 10000000 930 10000000 370 563 10000000 424 411 10000000 934 10000000 10000000 10000000 10000000 
0 10000000 10000000 10000000 742 10000000 0 700 10000000 214 10000000 736 853 10000000 886 10000000 345 10000000 10000000 10000000 10000000 10000000 545 10000000 10000000 676 763 363 
0 10000000 10000000 10000000 10000000 10000000 700 0 10000000 702 10000000 671 485 10000000 10000000 10000000 768 10000000 10000000 10000000 1096 10000000 899 682 10000000 10000000 507 652 
0 10000000 806 10000000 10000000 195 10000000 10000000 0 10000000 821 10000000 1045 407 10000000 10000000 10000000 230 547 10000000 497 603 10000000 927 10000000 10000000 10000000 10000000 
0 10000000 10000000 10000000 834 10000000 214 702 10000000 0 10000000 555 737 10000000 927 10000000 133 10000000 10000000 10000000 10000000 10000000 756 10000000 10000000 887 892 553 
0 10000000 10000000 818 873 768 10000000 10000000 821 10000000 0 10000000 10000000 887 610 363 10000000 716 348 332 10000000 865 10000000 10000000 400 10000000 10000000 10000000 
0 10000000 10000000 10000000 10000000 10000000 736 671 10000000 555 10000000 0 445 10000000 10000000 10000000 485 10000000 10000000 10000000 10000000 10000000 10000000 10000000 10000000 10000000 10000000 959 
0 10000000 10000000 10000000 10000000 10000000 853 485 1036 737 10000000 445 0 868 10000000 10000000 725 1019 10000000 10000000 10000000 10000000 10000000 10000000 10000000 10000000 983 993 
0 10000000 10000000 10000000 10000000 587 10000000 10000000 407 10000000 887 10000000 951 0 10000000 10000000 10000000 242 544 10000000 876 993 10000000 10000000 10000000 10000000 10000000 10000000 
0 756 10000000 461 289 10000000 886 10000000 10000000 927 610 10000000 10000000 10000000 0 267 956 10000000 912 501 10000000 944 10000000 10000000 492 10000000 10000000 10000000 
0 922 10000000 589 553 930 10000000 10000000 10000000 10000000 363 10000000 10000000 10000000 267 0 10000000 974 666 266 10000000 893 10000000 10000000 304 10000000 10000000 10000000 
0 10000000 10000000 10000000 890 10000000 345 768 10000000 133 10000000 485 725 10000000 956 10000000 0 10000000 10000000 10000000 10000000 10000000 885 10000000 10000000 10000000 10000000 683 
0 10000000 10000000 10000000 10000000 370 10000000 10000000 230 10000000 716 10000000 1019 242 10000000 974 10000000 0 389 10000000 727 765 10000000 10000000 10000000 10000000 10000000 10000000 
0 10000000 10000000 10000000 10000000 563 10000000 10000000 547 10000000 348 10000000 10000000 544 865 666 10000000 389 0 654 983 819 10000000 10000000 683 10000000 10000000 10000000 
0 10000000 10000000 848 786 10000000 10000000 10000000 10000000 10000000 332 10000000 10000000 10000000 501 266 10000000 10000000 654 0 10000000 10000000 10000000 10000000 133 10000000 10000000 10000000 
0 10000000 406 10000000 10000000 424 10000000 1055 497 10000000 10000000 10000000 10000000 876 10000000 10000000 10000000 727 983 10000000 0 477 10000000 585 10000000 10000000 1059 10000000 
0 730 385 634 976 411 10000000 10000000 603 10000000 865 10000000 10000000 993 899 893 10000000 765 819 10000000 477 0 10000000 1046 10000000 10000000 10000000 10000000 
0 954 10000000 10000000 880 10000000 545 899 10000000 756 10000000 10000000 10000000 10000000 10000000 10000000 885 10000000 10000000 10000000 10000000 10000000 0 10000000 10000000 230 600 264 
0 10000000 821 10000000 10000000 934 10000000 682 927 10000000 10000000 10000000 10000000 10000000 10000000 10000000 10000000 10000000 10000000 10000000 585 1096 10000000 0 10000000 10000000 566 951 
0 10000000 10000000 888 760 10000000 10000000 10000000 10000000 10000000 400 10000000 10000000 10000000 492 304 10000000 10000000 683 133 10000000 10000000 10000000 10000000 0 10000000 10000000 10000000 
0 768 10000000 920 796 10000000 676 10000000 10000000 887 10000000 10000000 10000000 10000000 10000000 10000000 10000000 10000000 10000000 10000000 10000000 10000000 230 10000000 10000000 0 817 478 
0 10000000 10000000 10000000 10000000 10000000 763 507 10000000 892 10000000 10000000 983 10000000 10000000 10000000 10000000 10000000 10000000 10000000 1074 10000000 600 566 10000000 817 0 469 
0 10000000 10000000 10000000 10000000 10000000 10000000 10000000 10000000 10000000 10000000 10000000 10000000 10000000 10000000 10000000 10000000 10000000 10000000 10000000 10000000 10000000 10000000 10000000 10000000 10000000 10000000 0 
EOF